19
 1 266 14
 2 280 14
 3 210 10
 4 154 7
 5 23 1
 6 48 2
 7 275 11
 8 442 17
 9 378 14
 10 140 5
 11 58 2
 12 450 15
 13 527 17
 14 480 15
 15 99 3
 16 646 19
 17 315 9
 18 324 9
 19 629 17
152